(set-info :smt-lib-version 2.6)
(set-info :category "crafted")
(set-logic QF_FFA)
(define-sort FF0 () (_ FiniteField 52435875175126190479447740508185965837690552500527637822603658699938581184513))
(declare-fun out_alt () FF0)
(declare-fun _54_alt () FF0)
(declare-fun _53_alt () FF0)
(declare-fun _44_alt () FF0)
(declare-fun _43_alt () FF0)
(declare-fun _52_alt () FF0)
(declare-fun _46_alt () FF0)
(declare-fun _1_alt () FF0)
(declare-fun _51_alt () FF0)
(declare-fun _38_alt () FF0)
(declare-fun _50_alt () FF0)
(declare-fun _4_alt () FF0)
(declare-fun _49_alt () FF0)
(declare-fun _33_alt () FF0)
(declare-fun _3_alt () FF0)
(declare-fun _39_alt () FF0)
(declare-fun _31_alt () FF0)
(declare-fun _7_alt () FF0)
(declare-fun _2_alt () FF0)
(declare-fun _37_alt () FF0)
(declare-fun _36_alt () FF0)
(declare-fun _34_alt () FF0)
(declare-fun _13_alt () FF0)
(declare-fun _12_alt () FF0)
(declare-fun _0_alt () FF0)
(declare-fun _32_alt () FF0)
(declare-fun _25_alt () FF0)
(declare-fun _24_alt () FF0)
(declare-fun _20_alt () FF0)
(declare-fun _30_alt () FF0)
(declare-fun _6_alt () FF0)
(declare-fun _29_alt () FF0)
(declare-fun _28_alt () FF0)
(declare-fun _19_alt () FF0)
(declare-fun _18_alt () FF0)
(declare-fun _5_alt () FF0)
(declare-fun _17_alt () FF0)
(declare-fun _16_alt () FF0)
(declare-fun _15_alt () FF0)
(declare-fun out () FF0)
(declare-fun _54 () FF0)
(declare-fun _53 () FF0)
(declare-fun _44 () FF0)
(declare-fun _43 () FF0)
(declare-fun _52 () FF0)
(declare-fun _46 () FF0)
(declare-fun _1 () FF0)
(declare-fun _51 () FF0)
(declare-fun _38 () FF0)
(declare-fun _50 () FF0)
(declare-fun _4 () FF0)
(declare-fun _49 () FF0)
(declare-fun _33 () FF0)
(declare-fun _3 () FF0)
(declare-fun _39 () FF0)
(declare-fun _31 () FF0)
(declare-fun _7 () FF0)
(declare-fun _2 () FF0)
(declare-fun _37 () FF0)
(declare-fun _36 () FF0)
(declare-fun _34 () FF0)
(declare-fun _13 () FF0)
(declare-fun _12 () FF0)
(declare-fun _0 () FF0)
(declare-fun _32 () FF0)
(declare-fun _25 () FF0)
(declare-fun _24 () FF0)
(declare-fun _20 () FF0)
(declare-fun _30 () FF0)
(declare-fun _6 () FF0)
(declare-fun _29 () FF0)
(declare-fun _28 () FF0)
(declare-fun _19 () FF0)
(declare-fun _18 () FF0)
(declare-fun _5 () FF0)
(declare-fun _17 () FF0)
(declare-fun _16 () FF0)
(declare-fun _15 () FF0)
(assert 
  (let ((let0 out_alt))
  (let ((let1 _54_alt))
  (let ((let2 (= let1 let0)))
  (let ((let3 (as ff52435875175126190479447740508185965837690552500527637822603658699938581184512 FF0)))
  (let ((let4 (ff.mul let1 let3)))
  (let ((let5 _53_alt))
  (let ((let6 _44_alt))
  (let ((let7 _43_alt))
  (let ((let8 (ff.add let7 let6 let5 let4)))
  (let ((let9 (ff.add let7 let6)))
  (let ((let10 (ff.mul let5 let9)))
  (let ((let11 (= let10 let8)))
  (let ((let12 (ff.mul let5 let3)))
  (let ((let13 _52_alt))
  (let ((let14 _46_alt))
  (let ((let15 (ff.add let14 let13 let12)))
  (let ((let16 (ff.mul let13 let14)))
  (let ((let17 (= let16 let15)))
  (let ((let18 _1_alt))
  (let ((let19 _51_alt))
  (let ((let20 (ff.mul let19 let18)))
  (let ((let21 (= let20 let13)))
  (let ((let22 (as ff1 FF0)))
  (let ((let23 _38_alt))
  (let ((let24 (ff.mul let23 let3)))
  (let ((let25 (ff.add let24 let22)))
  (let ((let26 _50_alt))
  (let ((let27 (ff.mul let26 let25)))
  (let ((let28 (= let27 let19)))
  (let ((let29 _4_alt))
  (let ((let30 _49_alt))
  (let ((let31 (ff.mul let30 let29)))
  (let ((let32 (= let31 let26)))
  (let ((let33 _33_alt))
  (let ((let34 _3_alt))
  (let ((let35 (ff.mul let34 let3)))
  (let ((let36 (ff.add let35 let22)))
  (let ((let37 (ff.mul let36 let33)))
  (let ((let38 (= let37 let30)))
  (let ((let39 (ff.mul let14 let3)))
  (let ((let40 _39_alt))
  (let ((let41 _31_alt))
  (let ((let42 (ff.add let41 let40 let39)))
  (let ((let43 (ff.mul let40 let41)))
  (let ((let44 (= let43 let42)))
  (let ((let45 _7_alt))
  (let ((let46 (ff.mul let45 let3)))
  (let ((let47 (ff.add let46 let22)))
  (let ((let48 (ff.mul let29 let3)))
  (let ((let49 (ff.add let48 let22)))
  (let ((let50 (ff.mul let49 let47)))
  (let ((let51 (= let50 let6)))
  (let ((let52 (ff.mul let29 let40)))
  (let ((let53 (= let52 let7)))
  (let ((let54 (ff.mul let40 let3)))
  (let ((let55 _2_alt))
  (let ((let56 (ff.mul let55 let3)))
  (let ((let57 (ff.add let56 let23 let54 let22)))
  (let ((let58 (ff.add let56 let22)))
  (let ((let59 (ff.mul let58 let23)))
  (let ((let60 (= let59 let57)))
  (let ((let61 _37_alt))
  (let ((let62 (ff.add let34 let61 let24)))
  (let ((let63 (ff.mul let61 let34)))
  (let ((let64 (= let63 let62)))
  (let ((let65 _36_alt))
  (let ((let66 (ff.mul let65 let3)))
  (let ((let67 _34_alt))
  (let ((let68 (ff.mul let67 let3)))
  (let ((let69 (ff.add let33 let68 let66 let22)))
  (let ((let70 (ff.add let68 let22)))
  (let ((let71 (ff.mul let70 let33)))
  (let ((let72 (= let71 let69)))
  (let ((let73 _13_alt))
  (let ((let74 _12_alt))
  (let ((let75 _0_alt))
  (let ((let76 (ff.mul let75 let3)))
  (let ((let77 (ff.add let76 let74 let73)))
  (let ((let78 (ff.mul let77 let77)))
  (let ((let79 (= let78 let67)))
  (let ((let80 (ff.mul let33 let3)))
  (let ((let81 _32_alt))
  (let ((let82 (ff.add let41 let81 let80)))
  (let ((let83 (ff.mul let81 let41)))
  (let ((let84 (= let83 let82)))
  (let ((let85 (ff.mul let81 let3)))
  (let ((let86 _25_alt))
  (let ((let87 _24_alt))
  (let ((let88 _20_alt))
  (let ((let89 (ff.add let88 let87 let86 let85)))
  (let ((let90 (ff.add let87 let86)))
  (let ((let91 (ff.mul let88 let90)))
  (let ((let92 (= let91 let89)))
  (let ((let93 (ff.mul let18 let3)))
  (let ((let94 (ff.add let93 let22)))
  (let ((let95 _30_alt))
  (let ((let96 (ff.mul let95 let94)))
  (let ((let97 (= let96 let41)))
  (let ((let98 _6_alt))
  (let ((let99 _29_alt))
  (let ((let100 (ff.mul let99 let98)))
  (let ((let101 (= let100 let95)))
  (let ((let102 _28_alt))
  (let ((let103 (ff.mul let102 let47)))
  (let ((let104 (= let103 let99)))
  (let ((let105 (ff.mul let47 let94)))
  (let ((let106 (= let105 let102)))
  (let ((let107 (ff.mul let49 let75)))
  (let ((let108 (= let107 let86)))
  (let ((let109 (ff.mul let29 let88)))
  (let ((let110 (= let109 let87)))
  (let ((let111 (ff.mul let88 let3)))
  (let ((let112 _19_alt))
  (let ((let113 (ff.add let34 let112 let111)))
  (let ((let114 (ff.mul let112 let34)))
  (let ((let115 (= let114 let113)))
  (let ((let116 (ff.mul let112 let3)))
  (let ((let117 _18_alt))
  (let ((let118 _5_alt))
  (let ((let119 (ff.add let118 let117 let116)))
  (let ((let120 (ff.mul let117 let118)))
  (let ((let121 (= let120 let119)))
  (let ((let122 (ff.mul let117 let3)))
  (let ((let123 _17_alt))
  (let ((let124 (ff.add let55 let123 let122)))
  (let ((let125 (ff.mul let123 let55)))
  (let ((let126 (= let125 let124)))
  (let ((let127 (ff.mul let123 let3)))
  (let ((let128 _16_alt))
  (let ((let129 (ff.add let45 let128 let127)))
  (let ((let130 (ff.mul let128 let45)))
  (let ((let131 (= let130 let129)))
  (let ((let132 (ff.mul let128 let3)))
  (let ((let133 _15_alt))
  (let ((let134 (ff.add let98 let133 let132)))
  (let ((let135 (ff.mul let133 let98)))
  (let ((let136 (= let135 let134)))
  (let ((let137 (ff.mul let133 let3)))
  (let ((let138 (ff.add let18 let74 let73 let137)))
  (let ((let139 (ff.add let74 let73)))
  (let ((let140 (ff.mul let139 let18)))
  (let ((let141 (= let140 let138)))
  (let ((let142 (ff.mul let118 let3)))
  (let ((let143 (ff.add let142 let22)))
  (let ((let144 (ff.mul let143 let55)))
  (let ((let145 (= let144 let73)))
  (let ((let146 (ff.mul let118 let75)))
  (let ((let147 (= let146 let74)))
  (let ((let148 (ff.mul let45 let45)))
  (let ((let149 (= let148 let45)))
  (let ((let150 (ff.mul let98 let98)))
  (let ((let151 (= let150 let98)))
  (let ((let152 (ff.mul let118 let118)))
  (let ((let153 (= let152 let118)))
  (let ((let154 (ff.mul let29 let29)))
  (let ((let155 (= let154 let29)))
  (let ((let156 (ff.mul let34 let34)))
  (let ((let157 (= let156 let34)))
  (let ((let158 (ff.mul let55 let55)))
  (let ((let159 (= let158 let55)))
  (let ((let160 (ff.mul let18 let18)))
  (let ((let161 (= let160 let18)))
  (let ((let162 (ff.mul let75 let75)))
  (let ((let163 (= let162 let75)))
  (let ((let164 (and let163 let161 let159 let157 let155 let153 let151 let149 let147 let145 let141 let136 let131 let126 let121 let115 let110 let108 let106 let104 let101 let97 let92 let84 let79 let72 let64 let60 let53 let51 let44 let38 let32 let28 let21 let17 let11 let2)))
  (let ((let165 out))
  (let ((let166 _54))
  (let ((let167 (= let166 let165)))
  (let ((let168 (ff.mul let166 let3)))
  (let ((let169 _53))
  (let ((let170 _44))
  (let ((let171 _43))
  (let ((let172 (ff.add let171 let170 let169 let168)))
  (let ((let173 (ff.add let171 let170)))
  (let ((let174 (ff.mul let169 let173)))
  (let ((let175 (= let174 let172)))
  (let ((let176 (ff.mul let169 let3)))
  (let ((let177 _52))
  (let ((let178 _46))
  (let ((let179 (ff.add let178 let177 let176)))
  (let ((let180 (ff.mul let177 let178)))
  (let ((let181 (= let180 let179)))
  (let ((let182 _1))
  (let ((let183 _51))
  (let ((let184 (ff.mul let183 let182)))
  (let ((let185 (= let184 let177)))
  (let ((let186 _38))
  (let ((let187 (ff.mul let186 let3)))
  (let ((let188 (ff.add let187 let22)))
  (let ((let189 _50))
  (let ((let190 (ff.mul let189 let188)))
  (let ((let191 (= let190 let183)))
  (let ((let192 _4))
  (let ((let193 _49))
  (let ((let194 (ff.mul let193 let192)))
  (let ((let195 (= let194 let189)))
  (let ((let196 _33))
  (let ((let197 _3))
  (let ((let198 (ff.mul let197 let3)))
  (let ((let199 (ff.add let198 let22)))
  (let ((let200 (ff.mul let199 let196)))
  (let ((let201 (= let200 let193)))
  (let ((let202 (ff.mul let178 let3)))
  (let ((let203 _39))
  (let ((let204 _31))
  (let ((let205 (ff.add let204 let203 let202)))
  (let ((let206 (ff.mul let203 let204)))
  (let ((let207 (= let206 let205)))
  (let ((let208 _7))
  (let ((let209 (ff.mul let208 let3)))
  (let ((let210 (ff.add let209 let22)))
  (let ((let211 (ff.mul let192 let3)))
  (let ((let212 (ff.add let211 let22)))
  (let ((let213 (ff.mul let212 let210)))
  (let ((let214 (= let213 let170)))
  (let ((let215 (ff.mul let192 let203)))
  (let ((let216 (= let215 let171)))
  (let ((let217 (ff.mul let203 let3)))
  (let ((let218 _2))
  (let ((let219 (ff.mul let218 let3)))
  (let ((let220 (ff.add let219 let186 let217 let22)))
  (let ((let221 (ff.add let219 let22)))
  (let ((let222 (ff.mul let221 let186)))
  (let ((let223 (= let222 let220)))
  (let ((let224 _37))
  (let ((let225 (ff.add let197 let224 let187)))
  (let ((let226 (ff.mul let224 let197)))
  (let ((let227 (= let226 let225)))
  (let ((let228 _36))
  (let ((let229 (ff.mul let228 let3)))
  (let ((let230 _34))
  (let ((let231 (ff.mul let230 let3)))
  (let ((let232 (ff.add let196 let231 let229 let22)))
  (let ((let233 (ff.add let231 let22)))
  (let ((let234 (ff.mul let233 let196)))
  (let ((let235 (= let234 let232)))
  (let ((let236 _13))
  (let ((let237 _12))
  (let ((let238 _0))
  (let ((let239 (ff.mul let238 let3)))
  (let ((let240 (ff.add let239 let237 let236)))
  (let ((let241 (ff.mul let240 let240)))
  (let ((let242 (= let241 let230)))
  (let ((let243 (ff.mul let196 let3)))
  (let ((let244 _32))
  (let ((let245 (ff.add let204 let244 let243)))
  (let ((let246 (ff.mul let244 let204)))
  (let ((let247 (= let246 let245)))
  (let ((let248 (ff.mul let244 let3)))
  (let ((let249 _25))
  (let ((let250 _24))
  (let ((let251 _20))
  (let ((let252 (ff.add let251 let250 let249 let248)))
  (let ((let253 (ff.add let250 let249)))
  (let ((let254 (ff.mul let251 let253)))
  (let ((let255 (= let254 let252)))
  (let ((let256 (ff.mul let182 let3)))
  (let ((let257 (ff.add let256 let22)))
  (let ((let258 _30))
  (let ((let259 (ff.mul let258 let257)))
  (let ((let260 (= let259 let204)))
  (let ((let261 _6))
  (let ((let262 _29))
  (let ((let263 (ff.mul let262 let261)))
  (let ((let264 (= let263 let258)))
  (let ((let265 _28))
  (let ((let266 (ff.mul let265 let210)))
  (let ((let267 (= let266 let262)))
  (let ((let268 (ff.mul let210 let257)))
  (let ((let269 (= let268 let265)))
  (let ((let270 (ff.mul let212 let238)))
  (let ((let271 (= let270 let249)))
  (let ((let272 (ff.mul let192 let251)))
  (let ((let273 (= let272 let250)))
  (let ((let274 (ff.mul let251 let3)))
  (let ((let275 _19))
  (let ((let276 (ff.add let197 let275 let274)))
  (let ((let277 (ff.mul let275 let197)))
  (let ((let278 (= let277 let276)))
  (let ((let279 (ff.mul let275 let3)))
  (let ((let280 _18))
  (let ((let281 _5))
  (let ((let282 (ff.add let281 let280 let279)))
  (let ((let283 (ff.mul let280 let281)))
  (let ((let284 (= let283 let282)))
  (let ((let285 (ff.mul let280 let3)))
  (let ((let286 _17))
  (let ((let287 (ff.add let218 let286 let285)))
  (let ((let288 (ff.mul let286 let218)))
  (let ((let289 (= let288 let287)))
  (let ((let290 (ff.mul let286 let3)))
  (let ((let291 _16))
  (let ((let292 (ff.add let208 let291 let290)))
  (let ((let293 (ff.mul let291 let208)))
  (let ((let294 (= let293 let292)))
  (let ((let295 (ff.mul let291 let3)))
  (let ((let296 _15))
  (let ((let297 (ff.add let261 let296 let295)))
  (let ((let298 (ff.mul let296 let261)))
  (let ((let299 (= let298 let297)))
  (let ((let300 (ff.mul let296 let3)))
  (let ((let301 (ff.add let182 let237 let236 let300)))
  (let ((let302 (ff.add let237 let236)))
  (let ((let303 (ff.mul let302 let182)))
  (let ((let304 (= let303 let301)))
  (let ((let305 (ff.mul let281 let3)))
  (let ((let306 (ff.add let305 let22)))
  (let ((let307 (ff.mul let306 let218)))
  (let ((let308 (= let307 let236)))
  (let ((let309 (ff.mul let281 let238)))
  (let ((let310 (= let309 let237)))
  (let ((let311 (ff.mul let208 let208)))
  (let ((let312 (= let311 let208)))
  (let ((let313 (ff.mul let261 let261)))
  (let ((let314 (= let313 let261)))
  (let ((let315 (ff.mul let281 let281)))
  (let ((let316 (= let315 let281)))
  (let ((let317 (ff.mul let192 let192)))
  (let ((let318 (= let317 let192)))
  (let ((let319 (ff.mul let197 let197)))
  (let ((let320 (= let319 let197)))
  (let ((let321 (ff.mul let218 let218)))
  (let ((let322 (= let321 let218)))
  (let ((let323 (ff.mul let182 let182)))
  (let ((let324 (= let323 let182)))
  (let ((let325 (ff.mul let238 let238)))
  (let ((let326 (= let325 let238)))
  (let ((let327 (and let326 let324 let322 let320 let318 let316 let314 let312 let310 let308 let304 let299 let294 let289 let284 let278 let273 let271 let269 let267 let264 let260 let255 let247 let242 let235 let227 let223 let216 let214 let207 let201 let195 let191 let185 let181 let175 let167)))
  (let ((let328 (= let165 let0)))
  (let ((let329 (not let328)))
  (let ((let330 (= let238 let75)))
  (let ((let331 (= let218 let55)))
  (let ((let332 (= let182 let18)))
  (let ((let333 (= let261 let98)))
  (let ((let334 (= let197 let34)))
  (let ((let335 (= let281 let118)))
  (let ((let336 (= let192 let29)))
  (let ((let337 (= let208 let45)))
  (let ((let338 (and let337 let336 let335 let334 let333 let332 let331 let330)))
  (let ((let339 (and let338 let329 let327 let164)))
  let339
))))))))))))))))))))))))))))))))))))))))))))))))))))))))))))))))))))))))))))))))))))))))))))))))))))))))))))))))))))))))))))))))))))))))))))))))))))))))))))))))))))))))))))))))))))))))))))))))))))))))))))))))))))))))))))))))))))))))))))))))))))))))))))))))))))))))))))))))))))))))))))))))))))))))))))))))))))))))))))))))))))))))))))))))))))
)
(check-sat)
